(set-option :produce-models true)
(set-logic QF_LRA)
(set-info :notes | Strip-packing problem.|)
(declare-fun x0 () Real)
(declare-fun y0 () Real)
(declare-fun x1 () Real)
(declare-fun y1 () Real)
(declare-fun x2 () Real)
(declare-fun y2 () Real)
(declare-fun x3 () Real)
(declare-fun y3 () Real)
(declare-fun x4 () Real)
(declare-fun y4 () Real)
(declare-fun x5 () Real)
(declare-fun y5 () Real)
(declare-fun x6 () Real)
(declare-fun y6 () Real)
(declare-fun x7 () Real)
(declare-fun y7 () Real)
(declare-fun x8 () Real)
(declare-fun y8 () Real)
(declare-fun x9 () Real)
(declare-fun y9 () Real)
(declare-fun x10 () Real)
(declare-fun y10 () Real)
(declare-fun x11 () Real)
(declare-fun y11 () Real)
(declare-fun z () Real)
(declare-fun c () Real)
(assert (and (= c z) (and (>= x0 0) 
(and (>= y0 0) 
(and (>= x1 0) 
(and (>= y1 0) 
(and (>= x2 0) 
(and (>= y2 0) 
(and (>= x3 0) 
(and (>= y3 0) 
(and (>= x4 0) 
(and (>= y4 0) 
(and (>= x5 0) 
(and (>= y5 0) 
(and (>= x6 0) 
(and (>= y6 0) 
(and (>= x7 0) 
(and (>= y7 0) 
(and (>= x8 0) 
(and (>= y8 0) 
(and (>= x9 0) 
(and (>= y9 0) 
(and (>= x10 0) 
(and (>= y10 0) 
(and (>= x11 0) 
(and (>= y11 0) 
(and (>= z 0) 
(and (>= c 0) 
(and (<= (+ x0 0.7673050486) z) 
(and (<= 0.9576645833 y0) 
(and (<= y0 1.73205080757) 
(and (<= x0 (- 3.639607708 0.7673050486)) 
(and (>= x0 0) 
(and (<= (+ x1 0.4146375028) z) 
(and (<= 0.9307352368 y1) 
(and (<= y1 1.73205080757) 
(and (<= x1 (- 3.639607708 0.4146375028)) 
(and (>= x1 0) 
(and (<= (+ x2 0.2062489781) z) 
(and (<= 0.7677472836 y2) 
(and (<= y2 1.73205080757) 
(and (<= x2 (- 3.639607708 0.2062489781)) 
(and (>= x2 0) 
(and (<= (+ x3 0.4949158465) z) 
(and (<= 0.7639436365 y3) 
(and (<= y3 1.73205080757) 
(and (<= x3 (- 3.639607708 0.4949158465)) 
(and (>= x3 0) 
(and (<= (+ x4 0.9659299407) z) 
(and (<= 0.6710706536 y4) 
(and (<= y4 1.73205080757) 
(and (<= x4 (- 3.639607708 0.9659299407)) 
(and (>= x4 0) 
(and (<= (+ x5 0.9968193694) z) 
(and (<= 0.6289533084 y5) 
(and (<= y5 1.73205080757) 
(and (<= x5 (- 3.639607708 0.9968193694)) 
(and (>= x5 0) 
(and (<= (+ x6 0.3650000596) z) 
(and (<= 0.5208995279 y6) 
(and (<= y6 1.73205080757) 
(and (<= x6 (- 3.639607708 0.3650000596)) 
(and (>= x6 0) 
(and (<= (+ x7 0.192145698) z) 
(and (<= 0.4875437604 y7) 
(and (<= y7 1.73205080757) 
(and (<= x7 (- 3.639607708 0.192145698)) 
(and (>= x7 0) 
(and (<= (+ x8 0.1249604791) z) 
(and (<= 0.384109911 y8) 
(and (<= y8 1.73205080757) 
(and (<= x8 (- 3.639607708 0.1249604791)) 
(and (>= x8 0) 
(and (<= (+ x9 0.8350505202) z) 
(and (<= 0.3102330758 y9) 
(and (<= y9 1.73205080757) 
(and (<= x9 (- 3.639607708 0.8350505202)) 
(and (>= x9 0) 
(and (<= (+ x10 0.0024387911) z) 
(and (<= 0.261312248 y10) 
(and (<= y10 1.73205080757) 
(and (<= x10 (- 3.639607708 0.0024387911)) 
(and (>= x10 0) 
(and (<= (+ x11 0.7839856521) z) 
(and (<= 0.2073666418 y11) 
(and (<= y11 1.73205080757) 
(and (<= x11 (- 3.639607708 0.7839856521)) 
(and (>= x11 0) 
(and (<= c 3.639607708) 
(and (or (<= (+ x0 0.7673050486) x1) (or (<= (+ x1 0.4146375028) x0) (or (>= (- y0 0.9576645833) y1) (or (>= (- y1 0.9307352368) y0))))) 
(and (or (<= (+ x0 0.7673050486) x2) (or (<= (+ x2 0.2062489781) x0) (or (>= (- y0 0.9576645833) y2) (or (>= (- y2 0.7677472836) y0))))) 
(and (or (<= (+ x0 0.7673050486) x3) (or (<= (+ x3 0.4949158465) x0) (or (>= (- y0 0.9576645833) y3) (or (>= (- y3 0.7639436365) y0))))) 
(and (or (<= (+ x0 0.7673050486) x4) (or (<= (+ x4 0.9659299407) x0) (or (>= (- y0 0.9576645833) y4) (or (>= (- y4 0.6710706536) y0))))) 
(and (or (<= (+ x0 0.7673050486) x5) (or (<= (+ x5 0.9968193694) x0) (or (>= (- y0 0.9576645833) y5) (or (>= (- y5 0.6289533084) y0))))) 
(and (or (<= (+ x0 0.7673050486) x6) (or (<= (+ x6 0.3650000596) x0) (or (>= (- y0 0.9576645833) y6) (or (>= (- y6 0.5208995279) y0))))) 
(and (or (<= (+ x0 0.7673050486) x7) (or (<= (+ x7 0.192145698) x0) (or (>= (- y0 0.9576645833) y7) (or (>= (- y7 0.4875437604) y0))))) 
(and (or (<= (+ x0 0.7673050486) x8) (or (<= (+ x8 0.1249604791) x0) (or (>= (- y0 0.9576645833) y8) (or (>= (- y8 0.384109911) y0))))) 
(and (or (<= (+ x0 0.7673050486) x9) (or (<= (+ x9 0.8350505202) x0) (or (>= (- y0 0.9576645833) y9) (or (>= (- y9 0.3102330758) y0))))) 
(and (or (<= (+ x0 0.7673050486) x10) (or (<= (+ x10 0.0024387911) x0) (or (>= (- y0 0.9576645833) y10) (or (>= (- y10 0.261312248) y0))))) 
(and (or (<= (+ x0 0.7673050486) x11) (or (<= (+ x11 0.7839856521) x0) (or (>= (- y0 0.9576645833) y11) (or (>= (- y11 0.2073666418) y0))))) 
(and (or (<= (+ x1 0.4146375028) x2) (or (<= (+ x2 0.2062489781) x1) (or (>= (- y1 0.9307352368) y2) (or (>= (- y2 0.7677472836) y1))))) 
(and (or (<= (+ x1 0.4146375028) x3) (or (<= (+ x3 0.4949158465) x1) (or (>= (- y1 0.9307352368) y3) (or (>= (- y3 0.7639436365) y1))))) 
(and (or (<= (+ x1 0.4146375028) x4) (or (<= (+ x4 0.9659299407) x1) (or (>= (- y1 0.9307352368) y4) (or (>= (- y4 0.6710706536) y1))))) 
(and (or (<= (+ x1 0.4146375028) x5) (or (<= (+ x5 0.9968193694) x1) (or (>= (- y1 0.9307352368) y5) (or (>= (- y5 0.6289533084) y1))))) 
(and (or (<= (+ x1 0.4146375028) x6) (or (<= (+ x6 0.3650000596) x1) (or (>= (- y1 0.9307352368) y6) (or (>= (- y6 0.5208995279) y1))))) 
(and (or (<= (+ x1 0.4146375028) x7) (or (<= (+ x7 0.192145698) x1) (or (>= (- y1 0.9307352368) y7) (or (>= (- y7 0.4875437604) y1))))) 
(and (or (<= (+ x1 0.4146375028) x8) (or (<= (+ x8 0.1249604791) x1) (or (>= (- y1 0.9307352368) y8) (or (>= (- y8 0.384109911) y1))))) 
(and (or (<= (+ x1 0.4146375028) x9) (or (<= (+ x9 0.8350505202) x1) (or (>= (- y1 0.9307352368) y9) (or (>= (- y9 0.3102330758) y1))))) 
(and (or (<= (+ x1 0.4146375028) x10) (or (<= (+ x10 0.0024387911) x1) (or (>= (- y1 0.9307352368) y10) (or (>= (- y10 0.261312248) y1))))) 
(and (or (<= (+ x1 0.4146375028) x11) (or (<= (+ x11 0.7839856521) x1) (or (>= (- y1 0.9307352368) y11) (or (>= (- y11 0.2073666418) y1))))) 
(and (or (<= (+ x2 0.2062489781) x3) (or (<= (+ x3 0.4949158465) x2) (or (>= (- y2 0.7677472836) y3) (or (>= (- y3 0.7639436365) y2))))) 
(and (or (<= (+ x2 0.2062489781) x4) (or (<= (+ x4 0.9659299407) x2) (or (>= (- y2 0.7677472836) y4) (or (>= (- y4 0.6710706536) y2))))) 
(and (or (<= (+ x2 0.2062489781) x5) (or (<= (+ x5 0.9968193694) x2) (or (>= (- y2 0.7677472836) y5) (or (>= (- y5 0.6289533084) y2))))) 
(and (or (<= (+ x2 0.2062489781) x6) (or (<= (+ x6 0.3650000596) x2) (or (>= (- y2 0.7677472836) y6) (or (>= (- y6 0.5208995279) y2))))) 
(and (or (<= (+ x2 0.2062489781) x7) (or (<= (+ x7 0.192145698) x2) (or (>= (- y2 0.7677472836) y7) (or (>= (- y7 0.4875437604) y2))))) 
(and (or (<= (+ x2 0.2062489781) x8) (or (<= (+ x8 0.1249604791) x2) (or (>= (- y2 0.7677472836) y8) (or (>= (- y8 0.384109911) y2))))) 
(and (or (<= (+ x2 0.2062489781) x9) (or (<= (+ x9 0.8350505202) x2) (or (>= (- y2 0.7677472836) y9) (or (>= (- y9 0.3102330758) y2))))) 
(and (or (<= (+ x2 0.2062489781) x10) (or (<= (+ x10 0.0024387911) x2) (or (>= (- y2 0.7677472836) y10) (or (>= (- y10 0.261312248) y2))))) 
(and (or (<= (+ x2 0.2062489781) x11) (or (<= (+ x11 0.7839856521) x2) (or (>= (- y2 0.7677472836) y11) (or (>= (- y11 0.2073666418) y2))))) 
(and (or (<= (+ x3 0.4949158465) x4) (or (<= (+ x4 0.9659299407) x3) (or (>= (- y3 0.7639436365) y4) (or (>= (- y4 0.6710706536) y3))))) 
(and (or (<= (+ x3 0.4949158465) x5) (or (<= (+ x5 0.9968193694) x3) (or (>= (- y3 0.7639436365) y5) (or (>= (- y5 0.6289533084) y3))))) 
(and (or (<= (+ x3 0.4949158465) x6) (or (<= (+ x6 0.3650000596) x3) (or (>= (- y3 0.7639436365) y6) (or (>= (- y6 0.5208995279) y3))))) 
(and (or (<= (+ x3 0.4949158465) x7) (or (<= (+ x7 0.192145698) x3) (or (>= (- y3 0.7639436365) y7) (or (>= (- y7 0.4875437604) y3))))) 
(and (or (<= (+ x3 0.4949158465) x8) (or (<= (+ x8 0.1249604791) x3) (or (>= (- y3 0.7639436365) y8) (or (>= (- y8 0.384109911) y3))))) 
(and (or (<= (+ x3 0.4949158465) x9) (or (<= (+ x9 0.8350505202) x3) (or (>= (- y3 0.7639436365) y9) (or (>= (- y9 0.3102330758) y3))))) 
(and (or (<= (+ x3 0.4949158465) x10) (or (<= (+ x10 0.0024387911) x3) (or (>= (- y3 0.7639436365) y10) (or (>= (- y10 0.261312248) y3))))) 
(and (or (<= (+ x3 0.4949158465) x11) (or (<= (+ x11 0.7839856521) x3) (or (>= (- y3 0.7639436365) y11) (or (>= (- y11 0.2073666418) y3))))) 
(and (or (<= (+ x4 0.9659299407) x5) (or (<= (+ x5 0.9968193694) x4) (or (>= (- y4 0.6710706536) y5) (or (>= (- y5 0.6289533084) y4))))) 
(and (or (<= (+ x4 0.9659299407) x6) (or (<= (+ x6 0.3650000596) x4) (or (>= (- y4 0.6710706536) y6) (or (>= (- y6 0.5208995279) y4))))) 
(and (or (<= (+ x4 0.9659299407) x7) (or (<= (+ x7 0.192145698) x4) (or (>= (- y4 0.6710706536) y7) (or (>= (- y7 0.4875437604) y4))))) 
(and (or (<= (+ x4 0.9659299407) x8) (or (<= (+ x8 0.1249604791) x4) (or (>= (- y4 0.6710706536) y8) (or (>= (- y8 0.384109911) y4))))) 
(and (or (<= (+ x4 0.9659299407) x9) (or (<= (+ x9 0.8350505202) x4) (or (>= (- y4 0.6710706536) y9) (or (>= (- y9 0.3102330758) y4))))) 
(and (or (<= (+ x4 0.9659299407) x10) (or (<= (+ x10 0.0024387911) x4) (or (>= (- y4 0.6710706536) y10) (or (>= (- y10 0.261312248) y4))))) 
(and (or (<= (+ x4 0.9659299407) x11) (or (<= (+ x11 0.7839856521) x4) (or (>= (- y4 0.6710706536) y11) (or (>= (- y11 0.2073666418) y4))))) 
(and (or (<= (+ x5 0.9968193694) x6) (or (<= (+ x6 0.3650000596) x5) (or (>= (- y5 0.6289533084) y6) (or (>= (- y6 0.5208995279) y5))))) 
(and (or (<= (+ x5 0.9968193694) x7) (or (<= (+ x7 0.192145698) x5) (or (>= (- y5 0.6289533084) y7) (or (>= (- y7 0.4875437604) y5))))) 
(and (or (<= (+ x5 0.9968193694) x8) (or (<= (+ x8 0.1249604791) x5) (or (>= (- y5 0.6289533084) y8) (or (>= (- y8 0.384109911) y5))))) 
(and (or (<= (+ x5 0.9968193694) x9) (or (<= (+ x9 0.8350505202) x5) (or (>= (- y5 0.6289533084) y9) (or (>= (- y9 0.3102330758) y5))))) 
(and (or (<= (+ x5 0.9968193694) x10) (or (<= (+ x10 0.0024387911) x5) (or (>= (- y5 0.6289533084) y10) (or (>= (- y10 0.261312248) y5))))) 
(and (or (<= (+ x5 0.9968193694) x11) (or (<= (+ x11 0.7839856521) x5) (or (>= (- y5 0.6289533084) y11) (or (>= (- y11 0.2073666418) y5))))) 
(and (or (<= (+ x6 0.3650000596) x7) (or (<= (+ x7 0.192145698) x6) (or (>= (- y6 0.5208995279) y7) (or (>= (- y7 0.4875437604) y6))))) 
(and (or (<= (+ x6 0.3650000596) x8) (or (<= (+ x8 0.1249604791) x6) (or (>= (- y6 0.5208995279) y8) (or (>= (- y8 0.384109911) y6))))) 
(and (or (<= (+ x6 0.3650000596) x9) (or (<= (+ x9 0.8350505202) x6) (or (>= (- y6 0.5208995279) y9) (or (>= (- y9 0.3102330758) y6))))) 
(and (or (<= (+ x6 0.3650000596) x10) (or (<= (+ x10 0.0024387911) x6) (or (>= (- y6 0.5208995279) y10) (or (>= (- y10 0.261312248) y6))))) 
(and (or (<= (+ x6 0.3650000596) x11) (or (<= (+ x11 0.7839856521) x6) (or (>= (- y6 0.5208995279) y11) (or (>= (- y11 0.2073666418) y6))))) 
(and (or (<= (+ x7 0.192145698) x8) (or (<= (+ x8 0.1249604791) x7) (or (>= (- y7 0.4875437604) y8) (or (>= (- y8 0.384109911) y7))))) 
(and (or (<= (+ x7 0.192145698) x9) (or (<= (+ x9 0.8350505202) x7) (or (>= (- y7 0.4875437604) y9) (or (>= (- y9 0.3102330758) y7))))) 
(and (or (<= (+ x7 0.192145698) x10) (or (<= (+ x10 0.0024387911) x7) (or (>= (- y7 0.4875437604) y10) (or (>= (- y10 0.261312248) y7))))) 
(and (or (<= (+ x7 0.192145698) x11) (or (<= (+ x11 0.7839856521) x7) (or (>= (- y7 0.4875437604) y11) (or (>= (- y11 0.2073666418) y7))))) 
(and (or (<= (+ x8 0.1249604791) x9) (or (<= (+ x9 0.8350505202) x8) (or (>= (- y8 0.384109911) y9) (or (>= (- y9 0.3102330758) y8))))) 
(and (or (<= (+ x8 0.1249604791) x10) (or (<= (+ x10 0.0024387911) x8) (or (>= (- y8 0.384109911) y10) (or (>= (- y10 0.261312248) y8))))) 
(and (or (<= (+ x8 0.1249604791) x11) (or (<= (+ x11 0.7839856521) x8) (or (>= (- y8 0.384109911) y11) (or (>= (- y11 0.2073666418) y8))))) 
(and (or (<= (+ x9 0.8350505202) x10) (or (<= (+ x10 0.0024387911) x9) (or (>= (- y9 0.3102330758) y10) (or (>= (- y10 0.261312248) y9))))) 
(and (or (<= (+ x9 0.8350505202) x11) (or (<= (+ x11 0.7839856521) x9) (or (>= (- y9 0.3102330758) y11) (or (>= (- y11 0.2073666418) y9))))) 
(and (or (<= (+ x10 0.0024387911) x11) (or (<= (+ x11 0.7839856521) x10) (or (>= (- y10 0.261312248) y11) (or (>= (- y11 0.2073666418) y10))))) )))))))))))))))))))))))))))))))))))))))))))))))))))))))))))))))))))))))))))))))))))))))))))))))))))))))))))))))))))))))))))))))))))))))))))))))))))))))))))
(minimize c)
(check-sat)
(get-objectives)
(exit)
